param set_len = 20;
param target_sum = 4713656777;
param values := [1] 718073299 [2] 642517750 [3] 369223084 [4] 680096563 [5] 722716309 [6] 105713471 [7] 792990003 [8] 158357547 [9] 726390475 [10] 467011879 [11] 193390513 [12] 333659788 [13] 615957517 [14] 619474693 [15] 441787717 [16] 258811280 [17] 1009639953 [18] 96686404 [19] 195167316 [20] 272755926 ;
